input: C:\Users\ofer.guthmann\Documents\HSmtMuc\results\res_prop_muc\res_Cimatti_mathsat_cores\QF_LRA\simple_startup_10nodes.abstract.base.smt.cnf
### time 0.011
Summary: 1 249 1 249 248 0 2
### lpf_literals 2
### UNSAT_by_pf 0
### iter 1
### true_assump_ratio 1.000000
### nettime 0.002
### longestcall 0
v 1 2 3 4 5 6 7 8 9 10 11 12 13 14 15 16 17 18 19 20 21 22 23 24 25 26 27 28 29 30 31 32 33 34 35 36 37 38 39 40 41 42 43 44 45 46 47 48 49 50 51 52 53 54 55 56 57 58 59 60 61 62 63 64 65 66 67 68 69 70 71 72 73 74 75 76 77 78 79 80 81 82 83 84 85 86 87 88 89 90 91 92 93 94 95 96 97 98 99 100 101 102 103 104 105 106 107 108 109 110 111 112 113 114 115 116 117 118 119 120 121 122 123 124 125 126 127 128 129 130 131 132 133 134 135 136 137 138 139 140 141 142 143 144 145 146 147 148 149 150 151 152 153 154 155 156 157 158 159 160 161 162 163 164 165 166 167 168 169 170 171 172 173 174 175 176 177 178 179 180 181 182 365 368 371 374 377 380 383 386 389 392 415 420 421 548 552 845 849 1142 1146 1439 1443 1736 1740 2033 2037 2330 2334 2627 2631 2921 2965 3218 3222 3446 3447 3723 3724 3740 3741 3757 3758 3774 3775 3791 3792 3808 3809 3825 3826 3842 3843 3856 3885 3894 3948 3952 3953 4100 4226 4291 4293 4627 4631 4632 4743 4808 4810 0
### decisions 1352
### pf_time 0
s UNSATISFIABLE
